c -----------------------------
c TP3 - Arbres couvrants
c Graphe exemple
c -----------------------------
p sp 8 16
e 5 6
e 5 8
e 6 8
e 1 8
e 2 6
e 1 5
e 3 4
e 2 8
e 1 3
e 2 3
e 2 4
e 3 8
e 7 3
e 4 7
e 7 1
e 7 5
